\* Problem: Unknown *\

Minimize
 obj: + z_146 + z_149 + z_152 + z_155 + z_158 + z_161 + z_164 + z_167
 + z_170 + z_173 + z_176 + z_179 + z_182 + z_185 + z_188 + z_191 + z_194
 + z_197 + z_200 + z_203 + z_206 + z_209 + z_212 + z_215 + z_218 + z_221
 + z_224 + z_227 + z_230 + z_233 + z_236 + z_239 + z_242 + z_245 + z_248
 + z_251 + z_254 + z_257 + z_260 + z_263 + z_266 + z_269 + z_272 + z_275
 + z_278 + z_281 + z_284 + z_287 + z_290 + z_293 + z_296 + z_299 + z_302
 + z_305 + z_308 + z_311 + z_314 + z_317 + z_320 + z_323 + z_326 + z_329
 + z_332 + z_335 + z_338 + z_341 + z_344 + z_347 + z_350 + z_353 + z_356
 + z_359 + z_362 + z_365 + z_368 + z_371 + z_374 + z_377 + z_380 + z_383
 + z_386 + z_389 + z_392 + z_395 + z_398 + z_401 + z_404 + z_407 + z_410
 + z_413 + z_416 + z_419 + z_422 + z_425 + z_428 + z_431 + z_434 + z_437
 + z_440

Subject To
 r_1: + z_2 + z_1 = 1
 r_2: + z_4 + z_3 = 1
 r_3: + z_6 + z_5 = 1
 r_4: + z_8 + z_7 = 1
 r_5: + z_10 + z_9 = 1
 r_6: + z_12 + z_11 = 1
 r_7: + z_14 + z_13 = 1
 r_8: + z_16 + z_15 = 1
 r_9: + z_18 + z_17 = 1
 r_10: + z_20 + z_19 = 1
 r_11: + z_22 + z_21 = 1
 r_12: + z_24 + z_23 = 1
 r_13: + z_26 + z_25 = 1
 r_14: + z_28 + z_27 = 1
 r_15: + z_30 + z_29 = 1
 r_16: + z_32 + z_31 = 1
 r_17: + z_34 + z_33 = 1
 r_18: + z_36 + z_35 = 1
 r_19: + z_38 + z_37 = 1
 r_20: + z_40 + z_39 = 1
 r_21: + z_42 + z_41 = 1
 r_22: + z_44 + z_43 = 1
 r_23: + z_46 + z_45 = 1
 r_24: + z_48 + z_47 = 1
 r_25: + z_50 + z_49 = 1
 r_26: + z_52 + z_51 = 1
 r_27: + z_54 + z_53 = 1
 r_28: + z_56 + z_55 = 1
 r_29: + z_58 + z_57 = 1
 r_30: + z_60 + z_59 = 1
 r_31: + z_62 + z_61 = 1
 r_32: + z_64 + z_63 = 1
 r_33: + z_66 + z_65 = 1
 r_34: + z_68 + z_67 = 1
 r_35: + z_70 + z_69 = 1
 r_36: + z_72 + z_71 = 1
 r_37: + z_74 + z_73 = 1
 r_38: + z_76 + z_75 = 1
 r_39: + z_78 + z_77 = 1
 r_40: + z_80 + z_79 = 1
 r_41: + z_82 + z_81 = 1
 r_42: + z_84 + z_83 = 1
 r_43: + z_86 + z_85 = 1
 r_44: + z_88 + z_87 = 1
 r_45: + z_90 + z_89 = 1
 r_46: + z_92 + z_91 = 1
 r_47: + z_94 + z_93 = 1
 r_48: + z_96 + z_95 = 1
 r_49: + z_98 + z_97 = 1
 r_50: + z_100 + z_99 = 1
 r_51: + z_102 + z_101 = 1
 r_52: + z_104 + z_103 = 1
 r_53: + z_106 + z_105 = 1
 r_54: + z_108 + z_107 = 1
 r_55: + z_110 + z_109 = 1
 r_56: + z_112 + z_111 = 1
 r_57: + z_114 + z_113 = 1
 r_58: + z_116 + z_115 = 1
 r_59: + z_118 + z_117 = 1
 r_60: + z_120 + z_119 = 1
 r_61: + z_122 + z_121 = 1
 r_62: + z_124 + z_123 = 1
 r_63: + z_126 + z_125 = 1
 r_64: + z_128 + z_127 = 1
 r_65: + z_130 + z_129 = 1
 r_66: + z_132 + z_131 = 1
 r_67: + z_134 + z_133 = 1
 r_68: + z_136 + z_135 = 1
 r_69: + z_138 + z_137 = 1
 r_70: + z_140 + z_139 = 1
 r_71: + z_142 + z_141 = 1
 r_72: + z_144 + z_143 = 1
 r_73: + z_143 + z_141 + z_139 + z_137 + z_135 + z_133 + z_131 + z_129
 + z_127 + z_125 + z_123 + z_121 + z_119 + z_117 + z_115 + z_113 + z_111
 + z_109 + z_107 + z_105 + z_103 + z_101 + z_99 + z_97 + z_95 + z_93
 + z_91 + z_89 + z_87 + z_85 + z_83 + z_81 + z_79 + z_77 + z_75 + z_73
 + z_71 + z_69 + z_67 + z_65 + z_63 + z_61 + z_59 + z_57 + z_55 + z_53
 + z_51 + z_49 + z_47 + z_45 + z_43 + z_41 + z_39 + z_37 + z_35 + z_33
 + z_31 + z_29 + z_27 + z_25 + z_23 + z_21 + z_19 + z_17 + z_15 + z_13
 + z_11 + z_9 + z_7 + z_5 + z_3 + z_1 <= 36
 r_74: + z_144 + z_142 + z_140 + z_138 + z_136 + z_134 + z_132 + z_130
 + z_128 + z_126 + z_124 + z_122 + z_120 + z_118 + z_116 + z_114 + z_112
 + z_110 + z_108 + z_106 + z_104 + z_102 + z_100 + z_98 + z_96 + z_94
 + z_92 + z_90 + z_88 + z_86 + z_84 + z_82 + z_80 + z_78 + z_76 + z_74
 + z_72 + z_70 + z_68 + z_66 + z_64 + z_62 + z_60 + z_58 + z_56 + z_54
 + z_52 + z_50 + z_48 + z_46 + z_44 + z_42 + z_40 + z_38 + z_36 + z_34
 + z_32 + z_30 + z_28 + z_26 + z_24 + z_22 + z_20 + z_18 + z_16 + z_14
 + z_12 + z_10 + z_8 + z_6 + z_4 + z_2 <= 36
 r_75: - z_37 + z_145 = 0
 r_76: - z_38 + z_147 + z_146 = 0
 r_77: - z_1 + z_146 + z_145 <= 0
 r_78: - z_2 + z_147 <= 0
 r_79: - z_37 + z_148 = 0
 r_80: - z_38 + z_150 + z_149 = 0
 r_81: - z_19 + z_149 + z_148 <= 0
 r_82: - z_20 + z_150 <= 0
 r_83: - z_39 + z_151 = 0
 r_84: - z_40 + z_153 + z_152 = 0
 r_85: - z_3 + z_152 + z_151 <= 0
 r_86: - z_4 + z_153 <= 0
 r_87: - z_39 + z_154 = 0
 r_88: - z_40 + z_156 + z_155 = 0
 r_89: - z_25 + z_155 + z_154 <= 0
 r_90: - z_26 + z_156 <= 0
 r_91: - z_41 + z_157 = 0
 r_92: - z_42 + z_159 + z_158 = 0
 r_93: - z_5 + z_158 + z_157 <= 0
 r_94: - z_6 + z_159 <= 0
 r_95: - z_41 + z_160 = 0
 r_96: - z_42 + z_162 + z_161 = 0
 r_97: - z_31 + z_161 + z_160 <= 0
 r_98: - z_32 + z_162 <= 0
 r_99: - z_43 + z_163 = 0
 r_100: - z_44 + z_165 + z_164 = 0
 r_101: - z_1 + z_164 + z_163 <= 0
 r_102: - z_2 + z_165 <= 0
 r_103: - z_43 + z_166 = 0
 r_104: - z_44 + z_168 + z_167 = 0
 r_105: - z_21 + z_167 + z_166 <= 0
 r_106: - z_22 + z_168 <= 0
 r_107: - z_45 + z_169 = 0
 r_108: - z_46 + z_171 + z_170 = 0
 r_109: - z_3 + z_170 + z_169 <= 0
 r_110: - z_4 + z_171 <= 0
 r_111: - z_45 + z_172 = 0
 r_112: - z_46 + z_174 + z_173 = 0
 r_113: - z_27 + z_173 + z_172 <= 0
 r_114: - z_28 + z_174 <= 0
 r_115: - z_47 + z_175 = 0
 r_116: - z_48 + z_177 + z_176 = 0
 r_117: - z_5 + z_176 + z_175 <= 0
 r_118: - z_6 + z_177 <= 0
 r_119: - z_47 + z_178 = 0
 r_120: - z_48 + z_180 + z_179 = 0
 r_121: - z_33 + z_179 + z_178 <= 0
 r_122: - z_34 + z_180 <= 0
 r_123: - z_49 + z_181 = 0
 r_124: - z_50 + z_183 + z_182 = 0
 r_125: - z_1 + z_182 + z_181 <= 0
 r_126: - z_2 + z_183 <= 0
 r_127: - z_49 + z_184 = 0
 r_128: - z_50 + z_186 + z_185 = 0
 r_129: - z_23 + z_185 + z_184 <= 0
 r_130: - z_24 + z_186 <= 0
 r_131: - z_51 + z_187 = 0
 r_132: - z_52 + z_189 + z_188 = 0
 r_133: - z_3 + z_188 + z_187 <= 0
 r_134: - z_4 + z_189 <= 0
 r_135: - z_51 + z_190 = 0
 r_136: - z_52 + z_192 + z_191 = 0
 r_137: - z_29 + z_191 + z_190 <= 0
 r_138: - z_30 + z_192 <= 0
 r_139: - z_53 + z_193 = 0
 r_140: - z_54 + z_195 + z_194 = 0
 r_141: - z_5 + z_194 + z_193 <= 0
 r_142: - z_6 + z_195 <= 0
 r_143: - z_53 + z_196 = 0
 r_144: - z_54 + z_198 + z_197 = 0
 r_145: - z_35 + z_197 + z_196 <= 0
 r_146: - z_36 + z_198 <= 0
 r_147: - z_55 + z_199 = 0
 r_148: - z_56 + z_201 + z_200 = 0
 r_149: - z_7 + z_200 + z_199 <= 0
 r_150: - z_8 + z_201 <= 0
 r_151: - z_55 + z_202 = 0
 r_152: - z_56 + z_204 + z_203 = 0
 r_153: - z_19 + z_203 + z_202 <= 0
 r_154: - z_20 + z_204 <= 0
 r_155: - z_57 + z_205 = 0
 r_156: - z_58 + z_207 + z_206 = 0
 r_157: - z_9 + z_206 + z_205 <= 0
 r_158: - z_10 + z_207 <= 0
 r_159: - z_57 + z_208 = 0
 r_160: - z_58 + z_210 + z_209 = 0
 r_161: - z_25 + z_209 + z_208 <= 0
 r_162: - z_26 + z_210 <= 0
 r_163: - z_59 + z_211 = 0
 r_164: - z_60 + z_213 + z_212 = 0
 r_165: - z_11 + z_212 + z_211 <= 0
 r_166: - z_12 + z_213 <= 0
 r_167: - z_59 + z_214 = 0
 r_168: - z_60 + z_216 + z_215 = 0
 r_169: - z_31 + z_215 + z_214 <= 0
 r_170: - z_32 + z_216 <= 0
 r_171: - z_61 + z_217 = 0
 r_172: - z_62 + z_219 + z_218 = 0
 r_173: - z_7 + z_218 + z_217 <= 0
 r_174: - z_8 + z_219 <= 0
 r_175: - z_61 + z_220 = 0
 r_176: - z_62 + z_222 + z_221 = 0
 r_177: - z_21 + z_221 + z_220 <= 0
 r_178: - z_22 + z_222 <= 0
 r_179: - z_63 + z_223 = 0
 r_180: - z_64 + z_225 + z_224 = 0
 r_181: - z_9 + z_224 + z_223 <= 0
 r_182: - z_10 + z_225 <= 0
 r_183: - z_63 + z_226 = 0
 r_184: - z_64 + z_228 + z_227 = 0
 r_185: - z_27 + z_227 + z_226 <= 0
 r_186: - z_28 + z_228 <= 0
 r_187: - z_65 + z_229 = 0
 r_188: - z_66 + z_231 + z_230 = 0
 r_189: - z_11 + z_230 + z_229 <= 0
 r_190: - z_12 + z_231 <= 0
 r_191: - z_65 + z_232 = 0
 r_192: - z_66 + z_234 + z_233 = 0
 r_193: - z_33 + z_233 + z_232 <= 0
 r_194: - z_34 + z_234 <= 0
 r_195: - z_67 + z_235 = 0
 r_196: - z_68 + z_237 + z_236 = 0
 r_197: - z_7 + z_236 + z_235 <= 0
 r_198: - z_8 + z_237 <= 0
 r_199: - z_67 + z_238 = 0
 r_200: - z_68 + z_240 + z_239 = 0
 r_201: - z_23 + z_239 + z_238 <= 0
 r_202: - z_24 + z_240 <= 0
 r_203: - z_69 + z_241 = 0
 r_204: - z_70 + z_243 + z_242 = 0
 r_205: - z_9 + z_242 + z_241 <= 0
 r_206: - z_10 + z_243 <= 0
 r_207: - z_69 + z_244 = 0
 r_208: - z_70 + z_246 + z_245 = 0
 r_209: - z_29 + z_245 + z_244 <= 0
 r_210: - z_30 + z_246 <= 0
 r_211: - z_71 + z_247 = 0
 r_212: - z_72 + z_249 + z_248 = 0
 r_213: - z_11 + z_248 + z_247 <= 0
 r_214: - z_12 + z_249 <= 0
 r_215: - z_71 + z_250 = 0
 r_216: - z_72 + z_252 + z_251 = 0
 r_217: - z_35 + z_251 + z_250 <= 0
 r_218: - z_36 + z_252 <= 0
 r_219: - z_73 + z_253 = 0
 r_220: - z_74 + z_255 + z_254 = 0
 r_221: - z_13 + z_254 + z_253 <= 0
 r_222: - z_14 + z_255 <= 0
 r_223: - z_73 + z_256 = 0
 r_224: - z_74 + z_258 + z_257 = 0
 r_225: - z_19 + z_257 + z_256 <= 0
 r_226: - z_20 + z_258 <= 0
 r_227: - z_75 + z_259 = 0
 r_228: - z_76 + z_261 + z_260 = 0
 r_229: - z_15 + z_260 + z_259 <= 0
 r_230: - z_16 + z_261 <= 0
 r_231: - z_75 + z_262 = 0
 r_232: - z_76 + z_264 + z_263 = 0
 r_233: - z_25 + z_263 + z_262 <= 0
 r_234: - z_26 + z_264 <= 0
 r_235: - z_77 + z_265 = 0
 r_236: - z_78 + z_267 + z_266 = 0
 r_237: - z_17 + z_266 + z_265 <= 0
 r_238: - z_18 + z_267 <= 0
 r_239: - z_77 + z_268 = 0
 r_240: - z_78 + z_270 + z_269 = 0
 r_241: - z_31 + z_269 + z_268 <= 0
 r_242: - z_32 + z_270 <= 0
 r_243: - z_79 + z_271 = 0
 r_244: - z_80 + z_273 + z_272 = 0
 r_245: - z_13 + z_272 + z_271 <= 0
 r_246: - z_14 + z_273 <= 0
 r_247: - z_79 + z_274 = 0
 r_248: - z_80 + z_276 + z_275 = 0
 r_249: - z_21 + z_275 + z_274 <= 0
 r_250: - z_22 + z_276 <= 0
 r_251: - z_81 + z_277 = 0
 r_252: - z_82 + z_279 + z_278 = 0
 r_253: - z_15 + z_278 + z_277 <= 0
 r_254: - z_16 + z_279 <= 0
 r_255: - z_81 + z_280 = 0
 r_256: - z_82 + z_282 + z_281 = 0
 r_257: - z_27 + z_281 + z_280 <= 0
 r_258: - z_28 + z_282 <= 0
 r_259: - z_83 + z_283 = 0
 r_260: - z_84 + z_285 + z_284 = 0
 r_261: - z_17 + z_284 + z_283 <= 0
 r_262: - z_18 + z_285 <= 0
 r_263: - z_83 + z_286 = 0
 r_264: - z_84 + z_288 + z_287 = 0
 r_265: - z_33 + z_287 + z_286 <= 0
 r_266: - z_34 + z_288 <= 0
 r_267: - z_85 + z_289 = 0
 r_268: - z_86 + z_291 + z_290 = 0
 r_269: - z_13 + z_290 + z_289 <= 0
 r_270: - z_14 + z_291 <= 0
 r_271: - z_85 + z_292 = 0
 r_272: - z_86 + z_294 + z_293 = 0
 r_273: - z_23 + z_293 + z_292 <= 0
 r_274: - z_24 + z_294 <= 0
 r_275: - z_87 + z_295 = 0
 r_276: - z_88 + z_297 + z_296 = 0
 r_277: - z_15 + z_296 + z_295 <= 0
 r_278: - z_16 + z_297 <= 0
 r_279: - z_87 + z_298 = 0
 r_280: - z_88 + z_300 + z_299 = 0
 r_281: - z_29 + z_299 + z_298 <= 0
 r_282: - z_30 + z_300 <= 0
 r_283: - z_89 + z_301 = 0
 r_284: - z_90 + z_303 + z_302 = 0
 r_285: - z_17 + z_302 + z_301 <= 0
 r_286: - z_18 + z_303 <= 0
 r_287: - z_89 + z_304 = 0
 r_288: - z_90 + z_306 + z_305 = 0
 r_289: - z_35 + z_305 + z_304 <= 0
 r_290: - z_36 + z_306 <= 0
 r_291: - z_91 + z_307 = 0
 r_292: - z_92 + z_309 + z_308 = 0
 r_293: - z_37 + z_308 + z_307 <= 0
 r_294: - z_38 + z_309 <= 0
 r_295: - z_91 + z_310 = 0
 r_296: - z_92 + z_312 + z_311 = 0
 r_297: - z_39 + z_311 + z_310 <= 0
 r_298: - z_40 + z_312 <= 0
 r_299: - z_93 + z_313 = 0
 r_300: - z_94 + z_315 + z_314 = 0
 r_301: - z_43 + z_314 + z_313 <= 0
 r_302: - z_44 + z_315 <= 0
 r_303: - z_93 + z_316 = 0
 r_304: - z_94 + z_318 + z_317 = 0
 r_305: - z_45 + z_317 + z_316 <= 0
 r_306: - z_46 + z_318 <= 0
 r_307: - z_95 + z_319 = 0
 r_308: - z_96 + z_321 + z_320 = 0
 r_309: - z_49 + z_320 + z_319 <= 0
 r_310: - z_50 + z_321 <= 0
 r_311: - z_95 + z_322 = 0
 r_312: - z_96 + z_324 + z_323 = 0
 r_313: - z_51 + z_323 + z_322 <= 0
 r_314: - z_52 + z_324 <= 0
 r_315: - z_97 + z_325 = 0
 r_316: - z_98 + z_327 + z_326 = 0
 r_317: - z_55 + z_326 + z_325 <= 0
 r_318: - z_56 + z_327 <= 0
 r_319: - z_97 + z_328 = 0
 r_320: - z_98 + z_330 + z_329 = 0
 r_321: - z_57 + z_329 + z_328 <= 0
 r_322: - z_58 + z_330 <= 0
 r_323: - z_99 + z_331 = 0
 r_324: - z_100 + z_333 + z_332 = 0
 r_325: - z_61 + z_332 + z_331 <= 0
 r_326: - z_62 + z_333 <= 0
 r_327: - z_99 + z_334 = 0
 r_328: - z_100 + z_336 + z_335 = 0
 r_329: - z_63 + z_335 + z_334 <= 0
 r_330: - z_64 + z_336 <= 0
 r_331: - z_101 + z_337 = 0
 r_332: - z_102 + z_339 + z_338 = 0
 r_333: - z_67 + z_338 + z_337 <= 0
 r_334: - z_68 + z_339 <= 0
 r_335: - z_101 + z_340 = 0
 r_336: - z_102 + z_342 + z_341 = 0
 r_337: - z_69 + z_341 + z_340 <= 0
 r_338: - z_70 + z_342 <= 0
 r_339: - z_103 + z_343 = 0
 r_340: - z_104 + z_345 + z_344 = 0
 r_341: - z_73 + z_344 + z_343 <= 0
 r_342: - z_74 + z_345 <= 0
 r_343: - z_103 + z_346 = 0
 r_344: - z_104 + z_348 + z_347 = 0
 r_345: - z_75 + z_347 + z_346 <= 0
 r_346: - z_76 + z_348 <= 0
 r_347: - z_105 + z_349 = 0
 r_348: - z_106 + z_351 + z_350 = 0
 r_349: - z_79 + z_350 + z_349 <= 0
 r_350: - z_80 + z_351 <= 0
 r_351: - z_105 + z_352 = 0
 r_352: - z_106 + z_354 + z_353 = 0
 r_353: - z_81 + z_353 + z_352 <= 0
 r_354: - z_82 + z_354 <= 0
 r_355: - z_107 + z_355 = 0
 r_356: - z_108 + z_357 + z_356 = 0
 r_357: - z_85 + z_356 + z_355 <= 0
 r_358: - z_86 + z_357 <= 0
 r_359: - z_107 + z_358 = 0
 r_360: - z_108 + z_360 + z_359 = 0
 r_361: - z_87 + z_359 + z_358 <= 0
 r_362: - z_88 + z_360 <= 0
 r_363: - z_109 + z_361 = 0
 r_364: - z_110 + z_363 + z_362 = 0
 r_365: - z_41 + z_362 + z_361 <= 0
 r_366: - z_42 + z_363 <= 0
 r_367: - z_109 + z_364 = 0
 r_368: - z_110 + z_366 + z_365 = 0
 r_369: - z_91 + z_365 + z_364 <= 0
 r_370: - z_92 + z_366 <= 0
 r_371: - z_111 + z_367 = 0
 r_372: - z_112 + z_369 + z_368 = 0
 r_373: - z_47 + z_368 + z_367 <= 0
 r_374: - z_48 + z_369 <= 0
 r_375: - z_111 + z_370 = 0
 r_376: - z_112 + z_372 + z_371 = 0
 r_377: - z_93 + z_371 + z_370 <= 0
 r_378: - z_94 + z_372 <= 0
 r_379: - z_113 + z_373 = 0
 r_380: - z_114 + z_375 + z_374 = 0
 r_381: - z_53 + z_374 + z_373 <= 0
 r_382: - z_54 + z_375 <= 0
 r_383: - z_113 + z_376 = 0
 r_384: - z_114 + z_378 + z_377 = 0
 r_385: - z_95 + z_377 + z_376 <= 0
 r_386: - z_96 + z_378 <= 0
 r_387: - z_115 + z_379 = 0
 r_388: - z_116 + z_381 + z_380 = 0
 r_389: - z_59 + z_380 + z_379 <= 0
 r_390: - z_60 + z_381 <= 0
 r_391: - z_115 + z_382 = 0
 r_392: - z_116 + z_384 + z_383 = 0
 r_393: - z_97 + z_383 + z_382 <= 0
 r_394: - z_98 + z_384 <= 0
 r_395: - z_117 + z_385 = 0
 r_396: - z_118 + z_387 + z_386 = 0
 r_397: - z_65 + z_386 + z_385 <= 0
 r_398: - z_66 + z_387 <= 0
 r_399: - z_117 + z_388 = 0
 r_400: - z_118 + z_390 + z_389 = 0
 r_401: - z_99 + z_389 + z_388 <= 0
 r_402: - z_100 + z_390 <= 0
 r_403: - z_119 + z_391 = 0
 r_404: - z_120 + z_393 + z_392 = 0
 r_405: - z_71 + z_392 + z_391 <= 0
 r_406: - z_72 + z_393 <= 0
 r_407: - z_119 + z_394 = 0
 r_408: - z_120 + z_396 + z_395 = 0
 r_409: - z_101 + z_395 + z_394 <= 0
 r_410: - z_102 + z_396 <= 0
 r_411: - z_121 + z_397 = 0
 r_412: - z_122 + z_399 + z_398 = 0
 r_413: - z_77 + z_398 + z_397 <= 0
 r_414: - z_78 + z_399 <= 0
 r_415: - z_121 + z_400 = 0
 r_416: - z_122 + z_402 + z_401 = 0
 r_417: - z_103 + z_401 + z_400 <= 0
 r_418: - z_104 + z_402 <= 0
 r_419: - z_123 + z_403 = 0
 r_420: - z_124 + z_405 + z_404 = 0
 r_421: - z_83 + z_404 + z_403 <= 0
 r_422: - z_84 + z_405 <= 0
 r_423: - z_123 + z_406 = 0
 r_424: - z_124 + z_408 + z_407 = 0
 r_425: - z_105 + z_407 + z_406 <= 0
 r_426: - z_106 + z_408 <= 0
 r_427: - z_125 + z_409 = 0
 r_428: - z_126 + z_411 + z_410 = 0
 r_429: - z_89 + z_410 + z_409 <= 0
 r_430: - z_90 + z_411 <= 0
 r_431: - z_125 + z_412 = 0
 r_432: - z_126 + z_414 + z_413 = 0
 r_433: - z_107 + z_413 + z_412 <= 0
 r_434: - z_108 + z_414 <= 0
 r_435: - z_127 + z_415 = 0
 r_436: - z_128 + z_417 + z_416 = 0
 r_437: - z_109 + z_416 + z_415 <= 0
 r_438: - z_110 + z_417 <= 0
 r_439: - z_129 + z_418 = 0
 r_440: - z_130 + z_420 + z_419 = 0
 r_441: - z_111 + z_419 + z_418 <= 0
 r_442: - z_112 + z_420 <= 0
 r_443: - z_131 + z_421 = 0
 r_444: - z_132 + z_423 + z_422 = 0
 r_445: - z_113 + z_422 + z_421 <= 0
 r_446: - z_114 + z_423 <= 0
 r_447: - z_133 + z_424 = 0
 r_448: - z_134 + z_426 + z_425 = 0
 r_449: - z_115 + z_425 + z_424 <= 0
 r_450: - z_116 + z_426 <= 0
 r_451: - z_135 + z_427 = 0
 r_452: - z_136 + z_429 + z_428 = 0
 r_453: - z_117 + z_428 + z_427 <= 0
 r_454: - z_118 + z_429 <= 0
 r_455: - z_137 + z_430 = 0
 r_456: - z_138 + z_432 + z_431 = 0
 r_457: - z_119 + z_431 + z_430 <= 0
 r_458: - z_120 + z_432 <= 0
 r_459: - z_139 + z_433 = 0
 r_460: - z_140 + z_435 + z_434 = 0
 r_461: - z_121 + z_434 + z_433 <= 0
 r_462: - z_122 + z_435 <= 0
 r_463: - z_141 + z_436 = 0
 r_464: - z_142 + z_438 + z_437 = 0
 r_465: - z_123 + z_437 + z_436 <= 0
 r_466: - z_124 + z_438 <= 0
 r_467: - z_143 + z_439 = 0
 r_468: - z_144 + z_441 + z_440 = 0
 r_469: - z_125 + z_440 + z_439 <= 0
 r_470: - z_126 + z_441 <= 0
 r_471: + z_440 + z_437 + z_434 + z_431 + z_428 + z_425 + z_422 + z_419
 + z_416 + z_413 + z_410 + z_407 + z_404 + z_401 + z_398 + z_395 + z_392
 + z_389 + z_386 + z_383 + z_380 + z_377 + z_374 + z_371 + z_368 + z_365
 + z_362 + z_359 + z_356 + z_353 + z_350 + z_347 + z_344 + z_341 + z_338
 + z_335 + z_332 + z_329 + z_326 + z_323 + z_320 + z_317 + z_314 + z_311
 + z_308 + z_305 + z_302 + z_299 + z_296 + z_293 + z_290 + z_287 + z_284
 + z_281 + z_278 + z_275 + z_272 + z_269 + z_266 + z_263 + z_260 + z_257
 + z_254 + z_251 + z_248 + z_245 + z_242 + z_239 + z_236 + z_233 + z_230
 + z_227 + z_224 + z_221 + z_218 + z_215 + z_212 + z_209 + z_206 + z_203
 + z_200 + z_197 + z_194 + z_191 + z_188 + z_185 + z_182 + z_179 + z_176
 + z_173 + z_170 + z_167 + z_164 + z_161 + z_158 + z_155 + z_152 + z_149
 + z_146 <= 4
 r_472: + z_440 + z_437 + z_434 + z_431 + z_428 + z_425 + z_422 + z_419
 + z_416 + z_413 + z_410 + z_407 + z_404 + z_401 + z_398 + z_395 + z_392
 + z_389 + z_386 + z_383 + z_380 + z_377 + z_374 + z_371 + z_368 + z_365
 + z_362 + z_359 + z_356 + z_353 + z_350 + z_347 + z_344 + z_341 + z_338
 + z_335 + z_332 + z_329 + z_326 + z_323 + z_320 + z_317 + z_314 + z_311
 + z_308 + z_305 + z_302 + z_299 + z_296 + z_293 + z_290 + z_287 + z_284
 + z_281 + z_278 + z_275 + z_272 + z_269 + z_266 + z_263 + z_260 + z_257
 + z_254 + z_251 + z_248 + z_245 + z_242 + z_239 + z_236 + z_233 + z_230
 + z_227 + z_224 + z_221 + z_218 + z_215 + z_212 + z_209 + z_206 + z_203
 + z_200 + z_197 + z_194 + z_191 + z_188 + z_185 + z_182 + z_179 + z_176
 + z_173 + z_170 + z_167 + z_164 + z_161 + z_158 + z_155 + z_152 + z_149
 + z_146 <= 4

Bounds
 0 <= z_1 <= 1
 0 <= z_2 <= 1
 0 <= z_3 <= 1
 0 <= z_4 <= 1
 0 <= z_5 <= 1
 0 <= z_6 <= 1
 0 <= z_7 <= 1
 0 <= z_8 <= 1
 0 <= z_9 <= 1
 0 <= z_10 <= 1
 0 <= z_11 <= 1
 0 <= z_12 <= 1
 0 <= z_13 <= 1
 0 <= z_14 <= 1
 0 <= z_15 <= 1
 0 <= z_16 <= 1
 0 <= z_17 <= 1
 0 <= z_18 <= 1
 0 <= z_19 <= 1
 0 <= z_20 <= 1
 0 <= z_21 <= 1
 0 <= z_22 <= 1
 0 <= z_23 <= 1
 0 <= z_24 <= 1
 0 <= z_25 <= 1
 0 <= z_26 <= 1
 0 <= z_27 <= 1
 0 <= z_28 <= 1
 0 <= z_29 <= 1
 0 <= z_30 <= 1
 0 <= z_31 <= 1
 0 <= z_32 <= 1
 0 <= z_33 <= 1
 0 <= z_34 <= 1
 0 <= z_35 <= 1
 0 <= z_36 <= 1
 0 <= z_37 <= 1
 0 <= z_38 <= 1
 0 <= z_39 <= 1
 0 <= z_40 <= 1
 0 <= z_41 <= 1
 0 <= z_42 <= 1
 0 <= z_43 <= 1
 0 <= z_44 <= 1
 0 <= z_45 <= 1
 0 <= z_46 <= 1
 0 <= z_47 <= 1
 0 <= z_48 <= 1
 0 <= z_49 <= 1
 0 <= z_50 <= 1
 0 <= z_51 <= 1
 0 <= z_52 <= 1
 0 <= z_53 <= 1
 0 <= z_54 <= 1
 0 <= z_55 <= 1
 0 <= z_56 <= 1
 0 <= z_57 <= 1
 0 <= z_58 <= 1
 0 <= z_59 <= 1
 0 <= z_60 <= 1
 0 <= z_61 <= 1
 0 <= z_62 <= 1
 0 <= z_63 <= 1
 0 <= z_64 <= 1
 0 <= z_65 <= 1
 0 <= z_66 <= 1
 0 <= z_67 <= 1
 0 <= z_68 <= 1
 0 <= z_69 <= 1
 0 <= z_70 <= 1
 0 <= z_71 <= 1
 0 <= z_72 <= 1
 0 <= z_73 <= 1
 0 <= z_74 <= 1
 0 <= z_75 <= 1
 0 <= z_76 <= 1
 0 <= z_77 <= 1
 0 <= z_78 <= 1
 0 <= z_79 <= 1
 0 <= z_80 <= 1
 0 <= z_81 <= 1
 0 <= z_82 <= 1
 0 <= z_83 <= 1
 0 <= z_84 <= 1
 0 <= z_85 <= 1
 0 <= z_86 <= 1
 0 <= z_87 <= 1
 0 <= z_88 <= 1
 0 <= z_89 <= 1
 0 <= z_90 <= 1
 0 <= z_91 <= 1
 0 <= z_92 <= 1
 0 <= z_93 <= 1
 0 <= z_94 <= 1
 0 <= z_95 <= 1
 0 <= z_96 <= 1
 0 <= z_97 <= 1
 0 <= z_98 <= 1
 0 <= z_99 <= 1
 0 <= z_100 <= 1
 0 <= z_101 <= 1
 0 <= z_102 <= 1
 0 <= z_103 <= 1
 0 <= z_104 <= 1
 0 <= z_105 <= 1
 0 <= z_106 <= 1
 0 <= z_107 <= 1
 0 <= z_108 <= 1
 0 <= z_109 <= 1
 0 <= z_110 <= 1
 0 <= z_111 <= 1
 0 <= z_112 <= 1
 0 <= z_113 <= 1
 0 <= z_114 <= 1
 0 <= z_115 <= 1
 0 <= z_116 <= 1
 0 <= z_117 <= 1
 0 <= z_118 <= 1
 0 <= z_119 <= 1
 0 <= z_120 <= 1
 0 <= z_121 <= 1
 0 <= z_122 <= 1
 0 <= z_123 <= 1
 0 <= z_124 <= 1
 0 <= z_125 <= 1
 0 <= z_126 <= 1
 0 <= z_127 <= 1
 0 <= z_128 <= 1
 0 <= z_129 <= 1
 0 <= z_130 <= 1
 0 <= z_131 <= 1
 0 <= z_132 <= 1
 0 <= z_133 <= 1
 0 <= z_134 <= 1
 0 <= z_135 <= 1
 0 <= z_136 <= 1
 0 <= z_137 <= 1
 0 <= z_138 <= 1
 0 <= z_139 <= 1
 0 <= z_140 <= 1
 0 <= z_141 <= 1
 0 <= z_142 <= 1
 0 <= z_143 <= 1
 0 <= z_144 <= 1
 0 <= z_145 <= 1
 0 <= z_146 <= 1
 0 <= z_147 <= 1
 0 <= z_148 <= 1
 0 <= z_149 <= 1
 0 <= z_150 <= 1
 0 <= z_151 <= 1
 0 <= z_152 <= 1
 0 <= z_153 <= 1
 0 <= z_154 <= 1
 0 <= z_155 <= 1
 0 <= z_156 <= 1
 0 <= z_157 <= 1
 0 <= z_158 <= 1
 0 <= z_159 <= 1
 0 <= z_160 <= 1
 0 <= z_161 <= 1
 0 <= z_162 <= 1
 0 <= z_163 <= 1
 0 <= z_164 <= 1
 0 <= z_165 <= 1
 0 <= z_166 <= 1
 0 <= z_167 <= 1
 0 <= z_168 <= 1
 0 <= z_169 <= 1
 0 <= z_170 <= 1
 0 <= z_171 <= 1
 0 <= z_172 <= 1
 0 <= z_173 <= 1
 0 <= z_174 <= 1
 0 <= z_175 <= 1
 0 <= z_176 <= 1
 0 <= z_177 <= 1
 0 <= z_178 <= 1
 0 <= z_179 <= 1
 0 <= z_180 <= 1
 0 <= z_181 <= 1
 0 <= z_182 <= 1
 0 <= z_183 <= 1
 0 <= z_184 <= 1
 0 <= z_185 <= 1
 0 <= z_186 <= 1
 0 <= z_187 <= 1
 0 <= z_188 <= 1
 0 <= z_189 <= 1
 0 <= z_190 <= 1
 0 <= z_191 <= 1
 0 <= z_192 <= 1
 0 <= z_193 <= 1
 0 <= z_194 <= 1
 0 <= z_195 <= 1
 0 <= z_196 <= 1
 0 <= z_197 <= 1
 0 <= z_198 <= 1
 0 <= z_199 <= 1
 0 <= z_200 <= 1
 0 <= z_201 <= 1
 0 <= z_202 <= 1
 0 <= z_203 <= 1
 0 <= z_204 <= 1
 0 <= z_205 <= 1
 0 <= z_206 <= 1
 0 <= z_207 <= 1
 0 <= z_208 <= 1
 0 <= z_209 <= 1
 0 <= z_210 <= 1
 0 <= z_211 <= 1
 0 <= z_212 <= 1
 0 <= z_213 <= 1
 0 <= z_214 <= 1
 0 <= z_215 <= 1
 0 <= z_216 <= 1
 0 <= z_217 <= 1
 0 <= z_218 <= 1
 0 <= z_219 <= 1
 0 <= z_220 <= 1
 0 <= z_221 <= 1
 0 <= z_222 <= 1
 0 <= z_223 <= 1
 0 <= z_224 <= 1
 0 <= z_225 <= 1
 0 <= z_226 <= 1
 0 <= z_227 <= 1
 0 <= z_228 <= 1
 0 <= z_229 <= 1
 0 <= z_230 <= 1
 0 <= z_231 <= 1
 0 <= z_232 <= 1
 0 <= z_233 <= 1
 0 <= z_234 <= 1
 0 <= z_235 <= 1
 0 <= z_236 <= 1
 0 <= z_237 <= 1
 0 <= z_238 <= 1
 0 <= z_239 <= 1
 0 <= z_240 <= 1
 0 <= z_241 <= 1
 0 <= z_242 <= 1
 0 <= z_243 <= 1
 0 <= z_244 <= 1
 0 <= z_245 <= 1
 0 <= z_246 <= 1
 0 <= z_247 <= 1
 0 <= z_248 <= 1
 0 <= z_249 <= 1
 0 <= z_250 <= 1
 0 <= z_251 <= 1
 0 <= z_252 <= 1
 0 <= z_253 <= 1
 0 <= z_254 <= 1
 0 <= z_255 <= 1
 0 <= z_256 <= 1
 0 <= z_257 <= 1
 0 <= z_258 <= 1
 0 <= z_259 <= 1
 0 <= z_260 <= 1
 0 <= z_261 <= 1
 0 <= z_262 <= 1
 0 <= z_263 <= 1
 0 <= z_264 <= 1
 0 <= z_265 <= 1
 0 <= z_266 <= 1
 0 <= z_267 <= 1
 0 <= z_268 <= 1
 0 <= z_269 <= 1
 0 <= z_270 <= 1
 0 <= z_271 <= 1
 0 <= z_272 <= 1
 0 <= z_273 <= 1
 0 <= z_274 <= 1
 0 <= z_275 <= 1
 0 <= z_276 <= 1
 0 <= z_277 <= 1
 0 <= z_278 <= 1
 0 <= z_279 <= 1
 0 <= z_280 <= 1
 0 <= z_281 <= 1
 0 <= z_282 <= 1
 0 <= z_283 <= 1
 0 <= z_284 <= 1
 0 <= z_285 <= 1
 0 <= z_286 <= 1
 0 <= z_287 <= 1
 0 <= z_288 <= 1
 0 <= z_289 <= 1
 0 <= z_290 <= 1
 0 <= z_291 <= 1
 0 <= z_292 <= 1
 0 <= z_293 <= 1
 0 <= z_294 <= 1
 0 <= z_295 <= 1
 0 <= z_296 <= 1
 0 <= z_297 <= 1
 0 <= z_298 <= 1
 0 <= z_299 <= 1
 0 <= z_300 <= 1
 0 <= z_301 <= 1
 0 <= z_302 <= 1
 0 <= z_303 <= 1
 0 <= z_304 <= 1
 0 <= z_305 <= 1
 0 <= z_306 <= 1
 0 <= z_307 <= 1
 0 <= z_308 <= 1
 0 <= z_309 <= 1
 0 <= z_310 <= 1
 0 <= z_311 <= 1
 0 <= z_312 <= 1
 0 <= z_313 <= 1
 0 <= z_314 <= 1
 0 <= z_315 <= 1
 0 <= z_316 <= 1
 0 <= z_317 <= 1
 0 <= z_318 <= 1
 0 <= z_319 <= 1
 0 <= z_320 <= 1
 0 <= z_321 <= 1
 0 <= z_322 <= 1
 0 <= z_323 <= 1
 0 <= z_324 <= 1
 0 <= z_325 <= 1
 0 <= z_326 <= 1
 0 <= z_327 <= 1
 0 <= z_328 <= 1
 0 <= z_329 <= 1
 0 <= z_330 <= 1
 0 <= z_331 <= 1
 0 <= z_332 <= 1
 0 <= z_333 <= 1
 0 <= z_334 <= 1
 0 <= z_335 <= 1
 0 <= z_336 <= 1
 0 <= z_337 <= 1
 0 <= z_338 <= 1
 0 <= z_339 <= 1
 0 <= z_340 <= 1
 0 <= z_341 <= 1
 0 <= z_342 <= 1
 0 <= z_343 <= 1
 0 <= z_344 <= 1
 0 <= z_345 <= 1
 0 <= z_346 <= 1
 0 <= z_347 <= 1
 0 <= z_348 <= 1
 0 <= z_349 <= 1
 0 <= z_350 <= 1
 0 <= z_351 <= 1
 0 <= z_352 <= 1
 0 <= z_353 <= 1
 0 <= z_354 <= 1
 0 <= z_355 <= 1
 0 <= z_356 <= 1
 0 <= z_357 <= 1
 0 <= z_358 <= 1
 0 <= z_359 <= 1
 0 <= z_360 <= 1
 0 <= z_361 <= 1
 0 <= z_362 <= 1
 0 <= z_363 <= 1
 0 <= z_364 <= 1
 0 <= z_365 <= 1
 0 <= z_366 <= 1
 0 <= z_367 <= 1
 0 <= z_368 <= 1
 0 <= z_369 <= 1
 0 <= z_370 <= 1
 0 <= z_371 <= 1
 0 <= z_372 <= 1
 0 <= z_373 <= 1
 0 <= z_374 <= 1
 0 <= z_375 <= 1
 0 <= z_376 <= 1
 0 <= z_377 <= 1
 0 <= z_378 <= 1
 0 <= z_379 <= 1
 0 <= z_380 <= 1
 0 <= z_381 <= 1
 0 <= z_382 <= 1
 0 <= z_383 <= 1
 0 <= z_384 <= 1
 0 <= z_385 <= 1
 0 <= z_386 <= 1
 0 <= z_387 <= 1
 0 <= z_388 <= 1
 0 <= z_389 <= 1
 0 <= z_390 <= 1
 0 <= z_391 <= 1
 0 <= z_392 <= 1
 0 <= z_393 <= 1
 0 <= z_394 <= 1
 0 <= z_395 <= 1
 0 <= z_396 <= 1
 0 <= z_397 <= 1
 0 <= z_398 <= 1
 0 <= z_399 <= 1
 0 <= z_400 <= 1
 0 <= z_401 <= 1
 0 <= z_402 <= 1
 0 <= z_403 <= 1
 0 <= z_404 <= 1
 0 <= z_405 <= 1
 0 <= z_406 <= 1
 0 <= z_407 <= 1
 0 <= z_408 <= 1
 0 <= z_409 <= 1
 0 <= z_410 <= 1
 0 <= z_411 <= 1
 0 <= z_412 <= 1
 0 <= z_413 <= 1
 0 <= z_414 <= 1
 0 <= z_415 <= 1
 0 <= z_416 <= 1
 0 <= z_417 <= 1
 0 <= z_418 <= 1
 0 <= z_419 <= 1
 0 <= z_420 <= 1
 0 <= z_421 <= 1
 0 <= z_422 <= 1
 0 <= z_423 <= 1
 0 <= z_424 <= 1
 0 <= z_425 <= 1
 0 <= z_426 <= 1
 0 <= z_427 <= 1
 0 <= z_428 <= 1
 0 <= z_429 <= 1
 0 <= z_430 <= 1
 0 <= z_431 <= 1
 0 <= z_432 <= 1
 0 <= z_433 <= 1
 0 <= z_434 <= 1
 0 <= z_435 <= 1
 0 <= z_436 <= 1
 0 <= z_437 <= 1
 0 <= z_438 <= 1
 0 <= z_439 <= 1
 0 <= z_440 <= 1
 0 <= z_441 <= 1

Generals
 z_1
 z_2
 z_3
 z_4
 z_5
 z_6
 z_7
 z_8
 z_9
 z_10
 z_11
 z_12
 z_13
 z_14
 z_15
 z_16
 z_17
 z_18
 z_19
 z_20
 z_21
 z_22
 z_23
 z_24
 z_25
 z_26
 z_27
 z_28
 z_29
 z_30
 z_31
 z_32
 z_33
 z_34
 z_35
 z_36
 z_37
 z_38
 z_39
 z_40
 z_41
 z_42
 z_43
 z_44
 z_45
 z_46
 z_47
 z_48
 z_49
 z_50
 z_51
 z_52
 z_53
 z_54
 z_55
 z_56
 z_57
 z_58
 z_59
 z_60
 z_61
 z_62
 z_63
 z_64
 z_65
 z_66
 z_67
 z_68
 z_69
 z_70
 z_71
 z_72
 z_73
 z_74
 z_75
 z_76
 z_77
 z_78
 z_79
 z_80
 z_81
 z_82
 z_83
 z_84
 z_85
 z_86
 z_87
 z_88
 z_89
 z_90
 z_91
 z_92
 z_93
 z_94
 z_95
 z_96
 z_97
 z_98
 z_99
 z_100
 z_101
 z_102
 z_103
 z_104
 z_105
 z_106
 z_107
 z_108
 z_109
 z_110
 z_111
 z_112
 z_113
 z_114
 z_115
 z_116
 z_117
 z_118
 z_119
 z_120
 z_121
 z_122
 z_123
 z_124
 z_125
 z_126
 z_127
 z_128
 z_129
 z_130
 z_131
 z_132
 z_133
 z_134
 z_135
 z_136
 z_137
 z_138
 z_139
 z_140
 z_141
 z_142
 z_143
 z_144
 z_145
 z_146
 z_147
 z_148
 z_149
 z_150
 z_151
 z_152
 z_153
 z_154
 z_155
 z_156
 z_157
 z_158
 z_159
 z_160
 z_161
 z_162
 z_163
 z_164
 z_165
 z_166
 z_167
 z_168
 z_169
 z_170
 z_171
 z_172
 z_173
 z_174
 z_175
 z_176
 z_177
 z_178
 z_179
 z_180
 z_181
 z_182
 z_183
 z_184
 z_185
 z_186
 z_187
 z_188
 z_189
 z_190
 z_191
 z_192
 z_193
 z_194
 z_195
 z_196
 z_197
 z_198
 z_199
 z_200
 z_201
 z_202
 z_203
 z_204
 z_205
 z_206
 z_207
 z_208
 z_209
 z_210
 z_211
 z_212
 z_213
 z_214
 z_215
 z_216
 z_217
 z_218
 z_219
 z_220
 z_221
 z_222
 z_223
 z_224
 z_225
 z_226
 z_227
 z_228
 z_229
 z_230
 z_231
 z_232
 z_233
 z_234
 z_235
 z_236
 z_237
 z_238
 z_239
 z_240
 z_241
 z_242
 z_243
 z_244
 z_245
 z_246
 z_247
 z_248
 z_249
 z_250
 z_251
 z_252
 z_253
 z_254
 z_255
 z_256
 z_257
 z_258
 z_259
 z_260
 z_261
 z_262
 z_263
 z_264
 z_265
 z_266
 z_267
 z_268
 z_269
 z_270
 z_271
 z_272
 z_273
 z_274
 z_275
 z_276
 z_277
 z_278
 z_279
 z_280
 z_281
 z_282
 z_283
 z_284
 z_285
 z_286
 z_287
 z_288
 z_289
 z_290
 z_291
 z_292
 z_293
 z_294
 z_295
 z_296
 z_297
 z_298
 z_299
 z_300
 z_301
 z_302
 z_303
 z_304
 z_305
 z_306
 z_307
 z_308
 z_309
 z_310
 z_311
 z_312
 z_313
 z_314
 z_315
 z_316
 z_317
 z_318
 z_319
 z_320
 z_321
 z_322
 z_323
 z_324
 z_325
 z_326
 z_327
 z_328
 z_329
 z_330
 z_331
 z_332
 z_333
 z_334
 z_335
 z_336
 z_337
 z_338
 z_339
 z_340
 z_341
 z_342
 z_343
 z_344
 z_345
 z_346
 z_347
 z_348
 z_349
 z_350
 z_351
 z_352
 z_353
 z_354
 z_355
 z_356
 z_357
 z_358
 z_359
 z_360
 z_361
 z_362
 z_363
 z_364
 z_365
 z_366
 z_367
 z_368
 z_369
 z_370
 z_371
 z_372
 z_373
 z_374
 z_375
 z_376
 z_377
 z_378
 z_379
 z_380
 z_381
 z_382
 z_383
 z_384
 z_385
 z_386
 z_387
 z_388
 z_389
 z_390
 z_391
 z_392
 z_393
 z_394
 z_395
 z_396
 z_397
 z_398
 z_399
 z_400
 z_401
 z_402
 z_403
 z_404
 z_405
 z_406
 z_407
 z_408
 z_409
 z_410
 z_411
 z_412
 z_413
 z_414
 z_415
 z_416
 z_417
 z_418
 z_419
 z_420
 z_421
 z_422
 z_423
 z_424
 z_425
 z_426
 z_427
 z_428
 z_429
 z_430
 z_431
 z_432
 z_433
 z_434
 z_435
 z_436
 z_437
 z_438
 z_439
 z_440
 z_441

End
